\* RiggingElections *\
Maximize
NumberofSeats: Choose_10 + Choose_11 + Choose_12 + Choose_13 + Choose_14
 + Choose_19 + Choose_2 + Choose_20 + Choose_28 + Choose_29 + Choose_3
 + Choose_30 + Choose_36 + Choose_37 + Choose_38 + Choose_39 + Choose_40
 + Choose_41 + Choose_42 + Choose_45 + Choose_46 + Choose_47 + Choose_49
 + Choose_7 + Choose_9
Subject To
NumberofDistricts: Choose_0 + Choose_1 + Choose_10 + Choose_11 + Choose_12
 + Choose_13 + Choose_14 + Choose_15 + Choose_16 + Choose_17 + Choose_18
 + Choose_19 + Choose_2 + Choose_20 + Choose_21 + Choose_22 + Choose_23
 + Choose_24 + Choose_25 + Choose_26 + Choose_27 + Choose_28 + Choose_29
 + Choose_3 + Choose_30 + Choose_31 + Choose_32 + Choose_33 + Choose_34
 + Choose_35 + Choose_36 + Choose_37 + Choose_38 + Choose_39 + Choose_4
 + Choose_40 + Choose_41 + Choose_42 + Choose_43 + Choose_44 + Choose_45
 + Choose_46 + Choose_47 + Choose_48 + Choose_49 + Choose_5 + Choose_6
 + Choose_7 + Choose_8 + Choose_9 <= 6
Quarter_10_assigned: Choose_12 + Choose_19 + Choose_20 + Choose_32 + Choose_33
 + Choose_41 + Choose_42 = 1
Quarter_11_assigned: Choose_18 + Choose_20 + Choose_24 + Choose_27 + Choose_29
 + Choose_31 + Choose_33 + Choose_34 + Choose_35 + Choose_36 + Choose_37
 + Choose_38 + Choose_39 + Choose_41 + Choose_43 + Choose_44 + Choose_45
 + Choose_46 = 1
Quarter_12_assigned: Choose_35 + Choose_38 + Choose_40 + Choose_43 + Choose_44
 + Choose_47 + Choose_48 = 1
Quarter_13_assigned: Choose_36 + Choose_39 + Choose_42 + Choose_45 + Choose_46
 + Choose_49 = 1
Quarter_14_assigned: Choose_44 + Choose_46 + Choose_48 + Choose_49 = 1
Quarter_1_assigned: Choose_0 + Choose_1 + Choose_2 + Choose_3 + Choose_4 = 1
Quarter_2_assigned: Choose_0 + Choose_1 + Choose_2 + Choose_5 + Choose_6
 + Choose_7 + Choose_8 = 1
Quarter_3_assigned: Choose_1 + Choose_10 + Choose_11 + Choose_12 + Choose_6
 + Choose_7 + Choose_9 = 1
Quarter_4_assigned: Choose_13 + Choose_14 + Choose_9 = 1
Quarter_5_assigned: Choose_10 + Choose_11 + Choose_12 + Choose_14 + Choose_15
 + Choose_16 + Choose_17 + Choose_18 + Choose_19 + Choose_2 + Choose_20
 + Choose_3 + Choose_4 + Choose_7 + Choose_8 = 1
Quarter_6_assigned: Choose_11 + Choose_15 + Choose_16 + Choose_17 + Choose_18
 + Choose_21 + Choose_22 + Choose_23 + Choose_24 + Choose_4 = 1
Quarter_7_assigned: Choose_16 + Choose_21 + Choose_22 + Choose_25 + Choose_26
 + Choose_27 + Choose_28 + Choose_29 = 1
Quarter_8_assigned: Choose_17 + Choose_18 + Choose_22 + Choose_23 + Choose_24
 + Choose_25 + Choose_26 + Choose_27 + Choose_30 + Choose_31 + Choose_32
 + Choose_33 + Choose_34 + Choose_35 + Choose_36 = 1
Quarter_9_assigned: Choose_26 + Choose_28 + Choose_29 + Choose_30 + Choose_31
 + Choose_37 + Choose_38 + Choose_39 + Choose_40 = 1
Binaries
Choose_0
Choose_1
Choose_10
Choose_11
Choose_12
Choose_13
Choose_14
Choose_15
Choose_16
Choose_17
Choose_18
Choose_19
Choose_2
Choose_20
Choose_21
Choose_22
Choose_23
Choose_24
Choose_25
Choose_26
Choose_27
Choose_28
Choose_29
Choose_3
Choose_30
Choose_31
Choose_32
Choose_33
Choose_34
Choose_35
Choose_36
Choose_37
Choose_38
Choose_39
Choose_4
Choose_40
Choose_41
Choose_42
Choose_43
Choose_44
Choose_45
Choose_46
Choose_47
Choose_48
Choose_49
Choose_5
Choose_6
Choose_7
Choose_8
Choose_9
End
